15	4	2
6699	6699	6699	6699	
87	786	821	
329	301	302	
603	896	937	
296	308	331	
587	783	813	
116	4	4	
648	678	743	
702	325	328	
173	884	929	
832	549	590	
733	778	805	
43	461	499	
419	510	539	
949	703	724	
545	967	1049	
